Gurobi Optimizer version 9.1.2 build v9.1.2rc0 (linux64)
Thread count: 36 physical cores, 72 logical processors, using up to 32 threads
Optimize a model with 12 rows, 57 columns and 590 nonzeros
Model fingerprint: 0xf32eec78
Model has 47 quadratic constraints
Coefficient statistics:
  Matrix range     [2e-05, 3e+00]
  QMatrix range    [1e+00, 1e+00]
  QLMatrix range   [1e+00, 1e+00]
  Objective range  [8e-03, 7e-01]
  Bounds range     [1e+00, 1e+00]
  RHS range        [1e+00, 1e+00]
Presolve removed 9 rows and 0 columns

Continuous model is non-convex -- solving as a MIP.

Presolve removed 9 rows and 0 columns
Presolve time: 0.00s
Presolved: 189 rows, 57 columns, 443 nonzeros
Presolved model has 47 bilinear constraint(s)
Variable types: 57 continuous, 0 integer (0 binary)

Root relaxation: objective -1.743721e+00, 44 iterations, 0.00 seconds

    Nodes    |    Current Node    |     Objective Bounds      |     Work
 Expl Unexpl |  Obj  Depth IntInf | Incumbent    BestBd   Gap | It/Node Time

     0     0   -1.74372    0   38          -   -1.74372      -     -    0s
H    0     0                       0.6147548   -1.74372   384%     -    0s
     0     0   -1.64739    0    1    0.61475   -1.64739   368%     -    0s
H    0     0                      -1.6450460   -1.64739  0.14%     -    0s
     0     0     cutoff    0        -1.64505   -1.64505  0.00%     -    0s

Cutting planes:
  RLT: 25
  BQP: 3

Explored 1 nodes (76 simplex iterations) in 0.01 seconds
Thread count was 32 (of 72 available processors)

Solution count 2: -1.64505 0.614755 
No other solutions better than -1.64505

Optimal solution found (tolerance 1.00e-04)
Best objective -1.645045978473e+00, best bound -1.645045978473e+00, gap 0.0000%

User-callback calls 78, time in user-callback 0.00 sec
Gurobi Optimizer version 9.1.2 build v9.1.2rc0 (linux64)
Thread count: 36 physical cores, 72 logical processors, using up to 32 threads
Optimize a model with 60 rows, 312 columns and 16100 nonzeros
Model fingerprint: 0x7a3100f9
Model has 262 quadratic constraints
Coefficient statistics:
  Matrix range     [4e-07, 7e+00]
  QMatrix range    [1e+00, 1e+00]
  QLMatrix range   [1e+00, 1e+00]
  Objective range  [3e-03, 1e+00]
  Bounds range     [1e+00, 1e+00]
  RHS range        [1e+00, 1e+00]
Presolve removed 16 rows and 0 columns

Continuous model is non-convex -- solving as a MIP.

Presolve removed 16 rows and 0 columns
Presolve time: 0.01s
Presolved: 1080 rows, 312 columns, 13135 nonzeros
Presolved model has 262 bilinear constraint(s)
Variable types: 312 continuous, 0 integer (0 binary)

Root relaxation: objective -1.978898e+01, 332 iterations, 0.02 seconds

    Nodes    |    Current Node    |     Objective Bounds      |     Work
 Expl Unexpl |  Obj  Depth IntInf | Incumbent    BestBd   Gap | It/Node Time

     0     0  -19.78898    0  150          -  -19.78898      -     -    0s
     0     0  -18.51310    0  119          -  -18.51310      -     -    0s
     0     0  -18.48479    0  119          -  -18.48479      -     -    0s
     0     0  -18.44288    0  115          -  -18.44288      -     -    0s
     0     0  -18.43967    0  115          -  -18.43967      -     -    0s
     0     0  -18.42444    0  109          -  -18.42444      -     -    0s
     0     0  -18.42255    0  109          -  -18.42255      -     -    0s
     0     0  -18.41634    0  109          -  -18.41634      -     -    0s
     0     0  -18.41501    0  109          -  -18.41501      -     -    0s
     0     0  -18.41325    0  115          -  -18.41325      -     -    0s
     0     0  -18.41283    0  115          -  -18.41283      -     -    0s
     0     0  -18.41250    0  115          -  -18.41250      -     -    0s
H    0     0                     -17.1411547  -18.41250  7.42%     -    0s
     0     2  -18.41250    0  115  -17.14115  -18.41250  7.42%     -    0s
* 1266   551              54     -17.1422573  -17.59475  2.64%  68.1    1s
* 1555   675              65     -17.1862024  -17.59475  2.38%  63.5    1s
* 2566  1005              49     -17.1866349  -17.45768  1.58%  55.5    2s
* 2567  1005              48     -17.1867563  -17.45768  1.58%  55.4    2s
* 2608  1005              51     -17.1869333  -17.45768  1.58%  54.8    2s
* 2609  1005              51     -17.1869480  -17.45768  1.58%  54.8    2s
* 5305   830              54     -17.1874140  -17.40390  1.26%  57.0    4s
* 5409   762              53     -17.1874192  -17.40390  1.26%  57.2    4s
* 6408   530              67     -17.1875288  -17.40390  1.26%  57.3    4s
* 6592   576              70     -17.1876444  -17.40390  1.26%  57.0    4s
  7393   771  -17.22322   24   37  -17.18764  -17.40390  1.26%  56.6    5s
* 8284  1091              71     -17.1964678  -17.40390  1.21%  54.7    5s
* 8954  1279              76     -17.2118136  -17.40390  1.12%  53.2    5s
*10126  1605              81     -17.2160566  -17.37487  0.92%  51.2    5s
*10272  1691              89     -17.2359842  -17.35933  0.72%  51.1    5s
*11317  1795              77     -17.2421897  -17.34470  0.59%  49.4    5s
*11319  1795              78     -17.2421898  -17.34470  0.59%  49.3    5s
*11765  1752              82     -17.2425563  -17.32312  0.47%  48.8    5s
*11849  1752              86     -17.2425621  -17.32312  0.47%  48.6    5s
*11854  1752              86     -17.2425713  -17.32312  0.47%  48.5    5s
*12703  1689              89     -17.2426606  -17.29938  0.33%  47.4    6s
*12709  1689              91     -17.2426614  -17.29938  0.33%  47.4    6s
*15354  1709              70     -17.2427014  -17.26617  0.14%  43.7    6s
*16867  1670              78     -17.2427027  -17.26052  0.10%  41.6    6s
*16869  1670              79     -17.2427043  -17.26052  0.10%  41.6    6s
*16903  1670              72     -17.2427215  -17.26052  0.10%  41.5    6s
*17526  1865              79     -17.2444868  -17.25602  0.07%  40.8    7s
*17527  1865              80     -17.2444888  -17.25602  0.07%  40.8    7s
*17530  1865              81     -17.2444889  -17.25602  0.07%  40.7    7s
*17785  1865              74     -17.2444913  -17.25448  0.06%  40.4    7s
*19285  1956              77     -17.2444976  -17.25326  0.05%  38.2    7s
*19412  1956              63     -17.2446684  -17.25249  0.05%  38.0    7s
*19414  1956              64     -17.2446967  -17.25249  0.05%  38.0    7s
*19415  1956              64     -17.2446974  -17.25249  0.05%  37.9    7s
*19416  1956              62     -17.2447064  -17.25249  0.05%  37.9    7s
*20249  2016              80     -17.2447100  -17.25146  0.04%  36.8    7s
*20251  2016              79     -17.2447125  -17.25146  0.04%  36.8    7s
*21002  2016              74     -17.2449955  -17.25146  0.04%  35.8    7s
*21266  2056              81     -17.2450175  -17.25038  0.03%  35.5    7s
*21268  2056              82     -17.2450205  -17.25038  0.03%  35.5    7s
*21271  2056              83     -17.2450207  -17.25038  0.03%  35.5    7s
*21272  2056              80     -17.2450215  -17.25038  0.03%  35.5    7s
*21354  2056              75     -17.2451388  -17.25038  0.03%  35.4    7s
*22171  1960              75     -17.2451510  -17.25020  0.03%  34.4    7s
*22639  1960              78     -17.2452858  -17.24931  0.02%  33.8    7s
*23386  1986              77     -17.2452899  -17.24873  0.02%  33.0    7s
*23816  1986              78     -17.2453496  -17.24849  0.02%  32.5    7s
*23818  1986              79     -17.2453572  -17.24849  0.02%  32.5    7s
*23820  1986              77     -17.2453653  -17.24849  0.02%  32.5    7s
*24937  1956              79     -17.2453708  -17.24781  0.01%  31.4    8s
*24938  1956              79     -17.2453708  -17.24781  0.01%  31.4    8s
*25424  1956              72     -17.2453896  -17.24769  0.01%  31.0    8s
*25479  1956              79     -17.2454040  -17.24769  0.01%  31.0    8s
*25695  1956              74     -17.2454330  -17.24769  0.01%  30.7    8s
*25698  1956              74     -17.2454330  -17.24769  0.01%  30.7    8s
*25828  1956              77     -17.2455878  -17.24769  0.01%  30.6    8s
*26338  1846              71     -17.2455883  -17.24739  0.01%  30.2    8s
*26339  1846              71     -17.2455884  -17.24739  0.01%  30.2    8s
*27087  1846              73     -17.2456132  -17.24727  0.01%  29.6    8s
*27148  1846              77     -17.2456244  -17.24723  0.01%  29.5    8s

Explored 27692 nodes (806441 simplex iterations) in 8.49 seconds
Thread count was 32 (of 72 available processors)

Solution count 10: -17.2456 -17.2456 -17.2456 ... -17.2454

Optimal solution found (tolerance 1.00e-04)
Best objective -1.724562439349e+01, best bound -1.724712186788e+01, gap 0.0087%

User-callback calls 56399, time in user-callback 0.01 sec



objective value: -17.245624393489493
objective bound: -17.247121867879393
x_opt: [0.8425392185732472, 0.9466318678003883, 0.0, 0.3082393709670484, 0.0, 0.0, 1.0, 0.0, 0.0, 0.0, 1.0, 0.0, 1.0, 1.0, 0.5320087918942711, 1.0, 0.0, 1.0, 0.0, 0.0, 0.0, 0.08239655209877618, 0.0, 0.4507713384535712, 0.0, 0.6992329822391562, 0.0, 1.0, 0.0, 0.0, 1.0, 1.0, 0.0, 0.6061409579705653, 1.0, 1.0, 0.0, 1.0, 0.0, 1.0, 1.0, 0.0, 0.8550715692564932, 0.015254942046526224, 0.09782995334549428, 0.026769118296217365, 0.3157215902287771, 0.5685915817059284, 0.0, 0.0]
GUROBI solution time: 8.4859299659729




